(declare-sort fun1 0)
(declare-sort fun12 0)
(declare-datatype list ((nil) (cons (head Int) (tail list))))
(declare-fun lam (Int) fun12)
(declare-const lam2 fun1)
(declare-fun apply1 (fun1 Int) fun12)
(declare-fun apply12 (fun12 Int) Bool)
(define-fun-rec
  take
  ((x Int) (y list)) list
  (ite
    (<= x 0) nil
    (match y
      ((nil nil)
       ((cons z xs) (cons z (take (- x 1) xs)))))))
(define-fun-rec
  lmerge
  ((x list) (y list)) list
  (match x
    ((nil y)
     ((cons z x2)
      (match y
        ((nil (cons z x2))
         ((cons x3 x4)
          (ite
            (<= z x3) (cons z (lmerge x2 (cons x3 x4)))
            (cons x3 (lmerge (cons z x2) x4))))))))))
(define-fun-rec
  length
  ((x list)) Int
  (match x
    ((nil 0)
     ((cons y l) (+ 1 (length l))))))
(define-fun-rec
  elem
  ((x Int) (y list)) Bool
  (match y
    ((nil false)
     ((cons z xs) (or (= z x) (elem x xs))))))
(define-fun-rec
  drop
  ((x Int) (y list)) list
  (ite
    (<= x 0) y
    (match y
      ((nil nil)
       ((cons z xs1) (drop (- x 1) xs1))))))
(define-fun-rec
  msorttd
  ((x list)) list
  (match x
    ((nil nil)
     ((cons y z)
      (match z
        ((nil (cons y nil))
         ((cons x2 x3)
          (let ((k (div (length (cons y (cons x2 x3))) 2)))
            (lmerge (msorttd (take k (cons y (cons x2 x3))))
              (msorttd (drop k (cons y (cons x2 x3)))))))))))))
(define-fun-rec
  deleteBy
  ((x fun1) (y Int) (z list)) list
  (match z
    ((nil nil)
     ((cons y2 ys)
      (ite (apply12 (apply1 x y) y2) ys (cons y2 (deleteBy x y ys)))))))
(define-fun-rec
  isPermutation
  ((x list) (y list)) Bool
  (match x
    ((nil
      (match y
        ((nil true)
         ((cons z x2) false))))
     ((cons x3 xs)
      (and (elem x3 y) (isPermutation xs (deleteBy lam2 x3 y)))))))
(assert (forall ((x4 Int)) (= (apply1 lam2 x4) (lam x4))))
(assert
  (forall ((x4 Int) (x5 Int)) (= (apply12 (lam x4) x5) (= x4 x5))))
(assert (not (forall ((xs list)) (isPermutation (msorttd xs) xs))))
(check-sat)
